NAME: rue_25_3
TYPE: TSP
DIMENSION: 25
EDGE_WEIGHT_TYPE: EUC_2D
NODE_COORD_SECTION
1 38 47
2 38 46
3 46 65
4 46 63
5 13 12
6 24 16
7 3 24
8 54 14
9 18 51
10 47 34
11 4 56
12 42 29
13 8 59
14 66 92
15 50 79
16 46 58
17 62 76
18 36 96
19 19 45
20 19 38
21 77 76
22 17 58
23 7 40
24 63 10
25 28 34
